50

94 28 154
92 8 217
89 17 157
88 9 239
88 9 167
87 16 273
86 9 150
84 11 226
82 12 239
82 8 254
81 7 216
79 13 137
77 15 257
77 3 279
77 10 183
76 21 272
73 21 193
72 4 153
70 17 218
69 13 178
68 6 296
68 20 295
65 15 139
63 18 175
63 12 298
61 3 243
59 14 288
58 15 199
57 1 209
55 8 274
54 15 270
52 6 300
52 4 263
52 4 155
51 2 162
48 9 198
46 5 257
43 9 156
40 1 137
38 10 266
37 2 213
37 9 165
36 5 173
35 6 299
35 11 248
35 5 282
34 2 279
34 3 195
34 8 278
33 5 270
